93 94 97 95 96 98 99 552 553 554 556 557 558 559 550 551 101 100 102 103 547 546 545 544 543 541 542 104 105 106 107 109 108 173 174 176 177 178 179 181 180 169 171 170 175 172 110 111 114 115 116 117 118 119 120 121 122 123 71 72 73 74 75 76 64 65 66 67 68 70 69 124 125 126 127 128 129 130 137 138 139 140 141 151 150 149 152 148 147 142 143 144 146 145 136 135 134 133 132 131 113 112 161 162 168 163 167 166 164 160 158 157 153 156 159 155 154 165 201 200 199 198 202 204 203 208 207 206 205 209 210 211 212 213 214 215 216 217 223 224 222 221 220 218 219 193 194 195 196 197 184 185 183 182 186 188 187 540 538 539 537 536 484 485 483 481 482 475 476 480 479 477 478 548 549 564 560 561 562 563 565 566 567 27 26 24 21 14 15 16 17 18 19 20 568 569 570 474 473 472 471 495 494 524 525 493 492 491 526 523 521 522 527 528 529 530 531 489 490 486 487 535 534 488 533 532 231 230 229 228 227 189 190 192 191 226 225 232 233 234 235 236 237 509 510 511 512 513 514 515 516 517 520 518 519 497 496 470 469 468 467 466 465 464 463 462 461 452 453 499 500 501 498 502 503 504 505 308 309 310 311 451 312 313 316 314 315 374 373 375 376 377 378 379 380 381 382 425 424 383 384 409 385 386 387 388 389 390 392 391 393 394 395 396 371 372 370 369 327 328 329 326 325 324 323 322 321 320 319 317 318 305 306 304 303 307 506 507 508 302 301 240 239 238 246 247 245 244 243 242 241 248 249 250 251 252 254 253 255 256 257 300 258 259 260 261 262 263 264 266 265 299 298 297 296 295 294 293 270 269 268 267 271 272 273 274 275 292 291 290 289 288 276 277 278 279 282 281 280 287 286 285 284 283 334 335 336 337 338 339 333 332 331 330 340 341 344 343 342 366 367 365 368 398 397 407 408 405 404 406 399 400 361 363 364 345 346 362 347 348 349 350 351 415 416 414 413 352 353 354 355 357 358 359 360 401 403 402 356 412 411 410 418 417 419 420 421 422 423 426 427 428 429 431 430 432 433 434 435 436 437 438 439 443 444 445 442 446 447 448 449 450 441 440 454 455 456 457 458 459 460 571 572 573 0 1 2 3 4 5 6 7 8 9 10 11 13 12 23 22 25 28 29 31 30 32 33 34 35 36 37 38 40 41 39 42 43 44 47 48 49 54 53 55 56 83 82 57 58 59 60 61 63 62 77 88 78 79 80 81 87 86 85 84 51 52 50 46 45 555 91 92 90 89